
******************************************************************************
This program contains Ipopt, a library for large-scale nonlinear optimization.
 Ipopt is released as open source code under the Eclipse Public License (EPL).
         For more information visit http://projects.coin-or.org/Ipopt

This version of Ipopt was compiled from source code available at
    https://github.com/IDAES/Ipopt as part of the Institute for the Design of
    Advanced Energy Systems Process Systems Engineering Framework (IDAES PSE
    Framework) Copyright (c) 2018-2019. See https://github.com/IDAES/idaes-pse.

This version of Ipopt was compiled using HSL, a collection of Fortran codes
    for large-scale scientific computation.  All technical papers, sales and
    publicity material resulting from use of the HSL codes within IPOPT must
    contain the following acknowledgement:
        HSL, a collection of Fortran codes for large-scale scientific
        computation. See http://www.hsl.rl.ac.uk.
******************************************************************************

This is Ipopt version 3.13.2, running with linear solver ma27.

Number of nonzeros in equality constraint Jacobian...:     1210
Number of nonzeros in inequality constraint Jacobian.:        0
Number of nonzeros in Lagrangian Hessian.............:     1376

Total number of variables............................:      480
                     variables with only lower bounds:      128
                variables with lower and upper bounds:      288
                     variables with only upper bounds:        0
Total number of equality constraints.................:      477
Total number of inequality constraints...............:        0
        inequality constraints with only lower bounds:        0
   inequality constraints with lower and upper bounds:        0
        inequality constraints with only upper bounds:        0

iter    objective    inf_pr   inf_du lg(mu)  ||d||  lg(rg) alpha_du alpha_pr  ls
   0  0.0000000e+00 2.16e-01 1.42e-14  -1.0 0.00e+00    -  0.00e+00 0.00e+00   0
   1  1.9165110e-01 1.92e-02 1.52e+03  -1.0 3.70e+04    -  7.74e-01 9.90e-01h  1
   2  1.9178161e-01 2.48e-03 1.83e+03  -1.0 1.25e+03    -  9.85e-01 9.90e-01h  1
   3  1.9152899e-01 9.80e-05 1.89e+02  -1.0 6.66e+02    -  9.89e-01 9.90e-01h  1
   4  1.9137414e-01 9.80e-05 9.57e+06  -1.0 1.70e+04    -  9.73e-01 1.55e-02h  7
   5  1.9137474e-01 1.04e-06 9.60e+04  -1.0 3.20e-01  -4.0 9.90e-01 9.90e-01h  1
   6  1.9129736e-01 3.21e-07 1.00e+09  -1.0 8.38e+03    -  9.92e-01 7.73e-03h  8
   7  1.9128029e-01 9.69e-08 2.02e+09  -1.0 9.64e+03    -  1.00e+00 1.93e-03h 10
   8  1.9126253e-01 1.56e-08 3.04e+09  -1.0 8.43e+03    -  1.00e+00 1.93e-03h 10
   9  2.0416416e-01 1.69e-02 3.04e+07  -1.0 8.94e+03    -  9.90e-01 9.90e-01s 22
iter    objective    inf_pr   inf_du lg(mu)  ||d||  lg(rg) alpha_du alpha_pr  ls
  10  2.0532617e-01 1.01e-02 3.04e+05  -1.0 3.75e+03    -  9.90e-01 9.90e-01s 22
  11  1.9423502e-01 6.29e-04 3.50e+08  -3.8 6.10e+03    -  9.77e-01 1.00e+00h  1
In iteration 11, 32 Slacks too small, adjusting variable bounds
  12  1.8653227e-01 4.85e-01 1.55e+10  -3.8 2.25e+03    -  1.00e+00 1.00e+00h  1
  13  1.8653778e-01 2.86e-01 7.39e+13  -3.8 3.77e+01  -4.5 2.81e-01 1.00e+00h  1
  14  1.8654676e-01 1.50e-01 1.55e+01  -3.8 1.24e+02  -5.0 1.00e+00 1.00e+00h  1
  15  1.8653795e-01 5.01e-02 3.57e+00  -3.8 1.86e+02  -5.4 5.67e-01 5.00e-01h  2
  16  1.6972670e-01 2.87e-03 5.11e-02  -3.8 1.18e+04    -  1.00e+00 1.00e+00h  1
  17  1.6955207e-01 1.15e-05 1.04e-04  -3.8 1.57e+03    -  1.00e+00 1.00e+00h  1
  18  1.6955254e-01 2.45e-09 1.29e+07  -8.6 2.02e+01    -  1.00e+00 1.00e+00h  1
  19  1.6955254e-01 6.17e-12 9.31e-10  -8.6 4.11e-02    -  1.00e+00 1.00e+00h  1

Number of Iterations....: 19

                                   (scaled)                 (unscaled)
Objective...............:   1.6955253854756847e-01    1.6955253854756847e-01
Dual infeasibility......:   9.3132257461547852e-10    9.3132257461547852e-10
Constraint violation....:   6.1728400169158704e-12    6.1728400169158704e-12
Complementarity.........:   2.5059124764724494e-09    2.5059124764724494e-09
Overall NLP error.......:   6.1728400169158704e-12    2.5059124764724494e-09


Number of objective function evaluations             = 94
Number of objective gradient evaluations             = 20
Number of equality constraint evaluations            = 94
Number of inequality constraint evaluations          = 0
Number of equality constraint Jacobian evaluations   = 20
Number of inequality constraint Jacobian evaluations = 0
Number of Lagrangian Hessian evaluations             = 19
Total CPU secs in IPOPT (w/o function evaluations)   =      0.033
Total CPU secs in NLP function evaluations           =      0.668

EXIT: Optimal Solution Found.
